p wcnf 5000 500 1
1 1 0
1 2 0
1 3 0
1 4 0
1 5 0
1 6 0
1 7 0
1 8 0
1 9 0
1 10 0
1 11 0
1 12 0
1 13 0
1 14 0
1 15 0
1 1 1 1 1 1 1 1 1 1 1 1 1 1 1 0
1 1 1 1 1 1 1 1 1 1 1 1 1 1 1 0
1 1 1 1 1 1 1 1 1 1 1 1 1 1 1 0
1 1 2 2 2 2 2 2 2 2 2 2 2 2 2 0
1 2 2 2 2 2 2 2 2 2 2 2 2 2 2 0
1 2 2 2 2 2 2 2 2 2 2 2 2 2 2 0
1 2 2 2 2 2 3 3 3 3 3 3 3 3 3 0
1 3 3 3 3 3 3 3 3 3 3 3 3 3 3 0
1 3 3 3 3 3 3 3 3 3 3 3 3 3 3 0
1 3 3 3 3 3 3 3 3 4 4 4 4 4 4 0
1 4 4 4 4 4 4 4 4 4 4 4 4 4 4 0
1 4 4 4 4 4 4 4 4 4 4 4 4 4 4 0
1 4 4 4 4 4 4 4 4 4 4 5 5 5 5 0
1 5 5 5 5 5 5 5 5 5 5 5 5 5 5 0
1 5 5 5 5 5 5 5 5 5 5 5 5 5 5 0
1 5 5 5 5 5 5 5 5 5 5 5 5 5 5 0
1 5 6 6 6 6 6 6 6 6 6 6 6 6 6 0
1 6 6 6 6 6 6 6 6 6 6 6 6 6 6 0
1 6 6 6 6 6 6 6 6 6 6 6 7 7 7 0
1 7 7 7 7 7 7 7 7 7 7 7 7 7 7 0
1 7 7 7 7 7 7 7 7 7 7 7 7 7 7 0
1 7 7 7 7 7 7 7 7 7 7 8 8 8 8 0
1 8 8 8 8 8 8 8 8 8 8 8 8 8 8 0
1 8 8 8 8 8 8 8 8 8 8 8 8 8 8 0
1 8 8 8 8 8 8 8 8 8 8 8 8 8 9 0
1 9 9 9 9 9 9 9 9 9 9 9 9 9 9 0
1 9 9 9 9 9 9 9 9 9 9 9 9 9 9 0
1 9 9 9 9 9 9 9 9 9 9 10 10 10 10 0
1 10 10 10 10 10 10 10 10 10 10 10 10 10 10 0
1 10 10 10 10 10 10 10 10 10 10 10 10 10 10 0
1 10 10 10 10 10 10 10 10 10 10 10 10 10 10 0
1 11 11 11 11 11 11 11 11 11 11 11 11 11 11 0
1 11 11 11 11 11 11 11 11 11 11 11 11 11 11 0
1 11 11 11 11 11 11 11 11 11 11 11 11 11 11 0
1 12 12 12 12 12 12 12 12 12 12 12 12 12 12 0
1 12 12 12 12 12 12 12 12 12 12 12 12 12 12 0
1 12 12 12 12 12 12 12 12 12 12 12 12 12 12 0
1 12 12 12 13 13 13 13 13 13 13 13 13 13 13 0
1 13 13 13 13 13 13 13 13 13 13 13 13 13 13 0
1 13 13 13 13 13 13 13 13 13 13 13 13 13 13 0
1 13 13 13 13 13 13 13 13 13 13 13 13 13 13 0
1 13 13 13 13 13 13 13 13 14 14 14 14 14 14 0
1 14 14 14 14 14 14 14 14 14 14 14 14 14 14 0
1 14 14 14 14 14 14 14 14 14 14 14 14 14 14 0
1 15 15 15 15 15 15 15 15 15 15 15 15 15 15 0
1 15 15 15 15 15 15 15 15 15 15 15 15 15 15 0
1 15 15 15 15 15 15 15 15 15 15 15 15 15 15 0
1 15 15 15 15 15 15 15 15 15 16 16 16 16 16 0
1 16 16 16 16 16 16 16 16 16 16 16 16 16 16 0
1 16 16 16 16 16 16 16 16 16 16 16 16 16 16 0
1 16 16 17 17 17 17 17 17 17 17 17 17 17 17 0
1 17 17 17 17 17 17 17 17 17 17 17 17 17 17 0
1 17 17 17 17 17 17 17 17 17 17 17 17 17 17 0
1 17 18 18 18 18 18 18 18 18 18 18 18 18 18 0
1 18 18 18 18 18 18 18 18 18 18 18 18 18 18 0
1 18 18 18 18 18 18 18 18 18 18 18 18 18 19 0
1 19 19 19 19 19 19 19 19 19 19 19 19 19 19 0
1 19 19 19 19 19 19 19 19 19 19 19 19 19 19 0
1 19 19 19 19 19 19 19 19 19 19 19 20 20 20 0
1 20 20 20 20 20 20 20 20 20 20 20 20 20 20 0
1 20 20 20 20 20 20 20 20 20 20 20 20 20 20 0
1 20 20 20 20 20 20 20 20 20 20 20 20 20 20 0
1 20 20 21 21 21 21 21 21 21 21 21 21 21 21 0
1 21 21 21 21 21 21 21 21 21 21 21 21 21 21 0
1 21 21 21 21 21 21 21 21 21 21 21 21 21 21 0
1 21 21 21 21 22 22 22 22 22 22 22 22 22 22 0
1 22 22 22 22 22 22 22 22 22 22 22 22 22 22 0
1 22 22 22 22 22 22 22 22 22 22 22 22 22 22 0
1 22 22 22 22 22 22 23 23 23 23 23 23 23 23 0
1 23 23 23 23 23 23 23 23 23 23 23 23 23 23 0
1 23 23 23 23 23 23 23 23 23 23 23 23 23 23 0
1 23 23 23 23 23 23 23 23 23 24 24 24 24 24 0
1 24 24 24 24 24 24 24 24 24 24 24 24 24 24 0
1 24 24 24 24 24 24 24 24 24 24 24 24 24 24 0
1 24 24 24 24 24 24 24 24 24 24 24 24 24 24 0
1 24 24 24 24 24 24 24 24 24 24 24 24 24 25 0
1 25 25 25 25 25 25 25 25 25 25 25 25 25 25 0
1 25 25 25 25 25 25 25 25 25 25 25 25 25 25 0
1 25 25 25 25 25 25 25 25 25 25 25 25 25 25 0
1 25 25 25 25 25 25 25 25 25 25 25 25 25 26 0
1 26 26 26 26 26 26 26 26 26 26 26 26 26 26 0
1 26 26 26 26 26 26 26 26 26 26 26 26 26 26 0
1 26 26 26 26 26 26 26 26 26 26 26 26 26 26 0
1 27 27 27 27 27 27 27 27 27 27 27 27 27 27 0
1 27 27 27 27 27 27 27 27 27 27 27 27 27 27 0
1 27 27 27 27 27 27 27 27 27 27 27 27 27 27 0
1 28 28 28 28 28 28 28 28 28 28 28 28 28 28 0
1 28 28 28 28 28 28 28 28 28 28 28 28 28 28 0
1 28 28 28 28 28 28 28 28 28 28 28 28 28 28 0
1 29 29 29 29 29 29 29 29 29 29 29 29 29 29 0
1 29 29 29 29 29 29 29 29 29 29 29 29 29 29 0
1 29 29 29 29 29 29 29 29 29 29 29 29 29 29 0
1 29 29 30 30 30 30 30 30 30 30 30 30 30 30 0
1 30 30 30 30 30 30 30 30 30 30 30 30 30 30 0
1 30 30 30 30 30 31 31 31 31 31 31 31 31 31 0
1 31 31 31 31 31 31 31 31 31 31 31 31 31 31 0
1 31 31 31 31 31 31 31 31 31 31 31 31 32 32 0
1 32 32 32 32 32 32 32 32 32 32 32 32 32 32 0
1 32 32 32 32 32 32 32 32 32 32 32 32 32 32 0
1 32 32 32 32 32 32 32 32 32 32 32 32 32 32 0
1 32 32 32 32 32 32 32 32 32 32 32 32 33 33 0
1 33 33 33 33 33 33 33 33 33 33 33 33 33 33 0
1 33 33 33 33 33 33 33 33 33 33 33 33 33 33 0
1 33 33 34 34 34 34 34 34 34 34 34 34 34 34 0
1 34 34 34 34 34 34 34 34 34 34 34 34 34 34 0
1 34 34 34 34 34 34 34 34 34 34 34 34 34 34 0
1 34 34 34 34 34 34 34 34 34 35 35 35 35 35 0
1 35 35 35 35 35 35 35 35 35 35 35 35 35 35 0
1 35 35 35 35 35 35 35 35 35 35 35 35 35 35 0
1 35 35 35 35 35 35 35 35 35 35 35 35 36 36 0
1 36 36 36 36 36 36 36 36 36 36 36 36 36 36 0
1 36 36 36 36 36 36 36 36 36 36 36 36 36 36 0
1 36 36 36 36 36 36 36 36 36 36 36 36 36 36 0
1 36 36 36 36 36 36 37 37 37 37 37 37 37 37 0
1 37 37 37 37 37 37 37 37 37 37 37 37 37 37 0
1 37 37 37 37 37 37 37 37 37 37 37 37 37 37 0
1 37 37 38 38 38 38 38 38 38 38 38 38 38 38 0
1 38 38 38 38 38 38 38 38 38 38 38 38 38 38 0
1 38 38 38 38 38 38 38 38 38 38 38 38 38 38 0
1 38 38 38 39 39 39 39 39 39 39 39 39 39 39 0
1 39 39 39 39 39 39 39 39 39 39 39 39 39 39 0
1 39 39 39 39 39 39 39 39 39 39 39 39 39 39 0
1 39 39 39 39 39 39 39 39 39 40 40 40 40 40 0
1 40 40 40 40 40 40 40 40 40 40 40 40 40 40 0
1 40 40 40 40 40 40 40 40 40 40 40 40 40 40 0
1 40 40 40 40 40 40 40 40 40 40 40 40 40 40 0
1 40 40 40 41 41 41 41 41 41 41 41 41 41 41 0
1 41 41 41 41 41 41 41 41 41 41 41 41 41 41 0
1 41 41 41 41 41 41 41 41 41 41 41 41 41 41 0
1 41 41 41 41 41 41 41 41 41 41 41 41 41 41 0
1 42 42 42 42 42 42 42 42 42 42 42 42 42 42 0
1 42 42 42 42 42 42 42 42 42 42 42 42 42 42 0
1 42 42 42 42 42 42 42 42 42 42 42 42 42 42 0
1 42 42 43 43 43 43 43 43 43 43 43 43 43 43 0
1 43 43 43 43 43 43 43 43 43 43 43 43 43 43 0
1 43 43 43 43 43 43 43 43 43 43 43 43 43 43 0
1 43 43 43 43 43 43 43 43 43 44 44 44 44 44 0
1 44 44 44 44 44 44 44 44 44 44 44 44 44 44 0
1 44 44 44 44 44 44 44 44 44 44 44 44 44 44 0
1 44 44 44 44 44 44 44 44 44 44 44 45 45 45 0
1 45 45 45 45 45 45 45 45 45 45 45 45 45 45 0
1 45 45 45 45 45 45 45 45 45 45 45 45 45 45 0
1 45 45 45 45 45 45 45 45 45 45 45 45 45 45 0
1 46 46 46 46 46 46 46 46 46 46 46 46 46 46 0
1 46 46 46 46 46 46 46 46 46 46 46 46 46 46 0
1 46 46 46 46 46 46 46 46 46 46 46 46 46 47 0
1 47 47 47 47 47 47 47 47 47 47 47 47 47 47 0
1 47 47 47 47 47 47 47 47 47 47 47 47 47 47 0
1 47 47 47 47 47 47 47 47 47 47 47 47 47 47 0
1 47 47 47 47 47 47 47 47 47 47 47 48 48 48 0
1 48 48 48 48 48 48 48 48 48 48 48 48 48 48 0
1 48 48 48 48 48 48 48 48 48 48 48 48 48 48 0
1 48 48 48 48 48 48 48 48 48 49 49 49 49 49 0
1 49 49 49 49 49 49 49 49 49 49 49 49 49 49 0
1 49 49 49 49 49 49 49 49 49 49 49 49 49 49 0
1 49 49 49 49 49 49 49 49 49 49 49 49 49 50 0
1 50 50 50 50 50 50 50 50 50 50 50 50 50 50 0
1 50 50 50 50 50 50 50 50 50 50 50 50 50 50 0
1 50 50 50 50 50 50 50 50 50 50 50 50 50 50 0
1 50 50 50 51 51 51 51 51 51 51 51 51 51 51 0
1 51 51 51 51 51 51 51 51 51 51 51 51 51 51 0
1 51 51 51 51 51 51 51 51 51 51 51 51 51 51 0
1 51 52 52 52 52 52 52 52 52 52 52 52 52 52 0
1 52 52 52 52 52 52 52 52 52 52 52 52 52 52 0
1 52 52 52 52 52 52 52 52 52 52 52 52 52 52 0
1 52 52 52 52 52 53 53 53 53 53 53 53 53 53 0
1 53 53 53 53 53 53 53 53 53 53 53 53 53 53 0
1 53 53 53 53 53 53 53 53 53 53 53 53 53 53 0
1 53 53 53 53 53 53 53 53 53 53 53 53 53 53 0
1 54 54 54 54 54 54 54 54 54 54 54 54 54 54 0
1 54 54 54 54 54 54 54 54 54 54 54 54 54 54 0
1 54 54 54 54 54 54 54 54 54 54 54 54 54 54 0
1 54 54 54 54 54 54 54 54 54 54 55 55 55 55 0
1 55 55 55 55 55 55 55 55 55 55 55 55 55 55 0
1 55 55 55 55 55 55 55 55 55 55 55 55 55 55 0
1 55 55 55 55 55 55 55 55 55 55 55 55 55 55 0
1 55 55 55 55 55 55 55 56 56 56 56 56 56 56 0
1 56 56 56 56 56 56 56 56 56 56 56 56 56 56 0
1 56 56 56 56 56 56 56 56 56 56 56 56 56 56 0
1 56 56 56 56 57 57 57 57 57 57 57 57 57 57 0
1 57 57 57 57 57 57 57 57 57 57 57 57 57 57 0
1 57 57 57 57 57 57 57 57 57 57 57 57 57 57 0
1 57 57 57 57 57 57 57 57 57 57 57 57 57 58 0
1 58 58 58 58 58 58 58 58 58 58 58 58 58 58 0
1 58 58 58 58 58 58 58 58 58 58 58 58 58 58 0
1 58 58 58 58 58 58 58 58 58 58 58 58 58 58 0
1 59 59 59 59 59 59 59 59 59 59 59 59 59 59 0
1 59 59 59 59 59 59 59 59 59 59 59 59 59 59 0
1 59 59 59 59 59 59 59 59 59 59 59 59 59 59 0
1 59 59 59 59 59 59 59 59 59 59 59 59 59 59 0
1 59 60 60 60 60 60 60 60 60 60 60 60 60 60 0
1 60 60 60 60 60 60 60 60 60 60 60 60 60 60 0
1 60 60 60 60 60 60 60 60 60 60 61 61 61 61 0
1 61 61 61 61 61 61 61 61 61 61 61 61 61 61 0
1 61 61 61 61 61 61 61 61 61 61 61 61 61 61 0
1 61 61 61 61 61 61 61 61 61 61 61 61 61 61 0
1 61 61 61 61 61 61 61 61 61 62 62 62 62 62 0
1 62 62 62 62 62 62 62 62 62 62 62 62 62 62 0
1 62 62 62 62 62 62 62 62 62 62 62 62 62 62 0
1 62 62 62 62 62 62 62 62 62 62 62 62 62 62 0
1 62 62 62 63 63 63 63 63 63 63 63 63 63 63 0
1 63 63 63 63 63 63 63 63 63 63 63 63 63 63 0
1 63 63 63 63 63 63 63 63 63 63 63 63 63 63 0
1 63 63 63 63 63 63 63 63 64 64 64 64 64 64 0
1 64 64 64 64 64 64 64 64 64 64 64 64 64 64 0
1 64 64 64 64 64 64 64 64 64 64 64 64 64 64 0
1 64 64 64 64 64 64 64 64 64 64 64 64 64 65 0
1 65 65 65 65 65 65 65 65 65 65 65 65 65 65 0
1 65 65 65 65 65 65 65 65 65 65 65 65 65 65 0
1 65 65 65 65 65 65 65 65 65 65 65 65 65 65 0
1 65 65 65 65 65 65 65 65 65 65 65 66 66 66 0
1 66 66 66 66 66 66 66 66 66 66 66 66 66 66 0
1 66 66 66 66 66 66 66 66 66 66 66 66 66 66 0
1 66 66 66 66 66 66 66 66 66 66 66 66 66 66 0
1 66 66 66 66 66 66 66 66 66 66 66 66 66 66 0
1 66 67 67 67 67 67 67 67 67 67 67 67 67 67 0
1 67 67 67 67 67 67 67 67 67 67 67 67 67 67 0
1 67 67 67 67 67 67 67 67 67 67 67 67 67 67 0
1 67 67 67 67 67 67 67 67 67 67 68 68 68 68 0
1 68 68 68 68 68 68 68 68 68 68 68 68 68 68 0
1 68 68 68 68 68 68 68 68 68 68 68 68 68 68 0
1 68 68 68 68 68 68 68 68 68 68 68 68 68 68 0
1 68 68 68 68 68 68 68 68 68 68 69 69 69 69 0
1 69 69 69 69 69 69 69 69 69 69 69 69 69 69 0
1 69 69 69 69 69 69 69 69 69 69 69 69 69 69 0
1 69 69 69 69 69 69 69 69 69 69 69 69 69 69 0
1 69 69 70 70 70 70 70 70 70 70 70 70 70 70 0
1 70 70 70 70 70 70 70 70 70 70 70 70 70 70 0
1 70 70 70 70 70 70 70 70 70 70 70 70 70 70 0
1 70 70 70 70 70 70 71 71 71 71 71 71 71 71 0
1 71 71 71 71 71 71 71 71 71 71 71 71 71 71 0
1 71 71 71 71 71 71 71 71 71 71 71 71 71 71 0
1 71 71 71 71 71 71 71 71 72 72 72 72 72 72 0
1 72 72 72 72 72 72 72 72 72 72 72 72 72 72 0
1 72 72 72 72 72 72 72 72 72 72 72 72 72 72 0
1 72 72 72 72 72 72 72 72 72 73 73 73 73 73 0
1 73 73 73 73 73 73 73 73 73 73 73 73 73 73 0
1 73 73 73 73 73 73 73 73 73 73 73 73 73 73 0
1 73 73 73 73 73 73 73 73 73 73 73 73 73 73 0
1 73 74 74 74 74 74 74 74 74 74 74 74 74 74 0
1 74 74 74 74 74 74 74 74 74 74 74 74 74 74 0
1 74 74 74 74 74 74 74 74 74 74 74 74 74 74 0
1 74 74 74 74 74 74 75 75 75 75 75 75 75 75 0
1 75 75 75 75 75 75 75 75 75 75 75 75 75 75 0
1 75 75 75 75 75 75 75 75 75 75 75 75 76 76 0
1 76 76 76 76 76 76 76 76 76 76 76 76 76 76 0
1 76 76 76 76 76 76 76 76 76 76 76 76 76 76 0
1 76 76 76 76 76 76 76 76 76 76 76 76 77 77 0
1 77 77 77 77 77 77 77 77 77 77 77 77 77 77 0
1 77 77 77 77 77 77 77 77 77 77 77 77 77 77 0
1 77 77 77 77 77 77 77 77 77 77 77 77 77 77 0
1 77 77 77 78 78 78 78 78 78 78 78 78 78 78 0
1 78 78 78 78 78 78 78 78 78 78 78 78 78 78 0
1 78 78 78 78 78 78 78 78 78 78 78 78 78 78 0
1 78 78 78 78 78 78 78 79 79 79 79 79 79 79 0
1 79 79 79 79 79 79 79 79 79 79 79 79 79 79 0
1 79 79 79 79 79 79 79 79 79 79 79 79 79 79 0
1 79 79 79 79 79 79 79 79 79 79 79 79 79 79 0
1 79 79 79 79 79 79 79 79 79 79 79 79 80 80 0
1 80 80 80 80 80 80 80 80 80 80 80 80 80 80 0
1 80 80 80 80 80 80 80 80 80 80 80 80 80 80 0
1 80 80 80 80 80 80 80 80 80 80 80 81 81 81 0
1 81 81 81 81 81 81 81 81 81 81 81 81 81 81 0
1 81 81 81 81 81 81 81 81 81 81 81 81 81 81 0
1 81 81 81 81 81 81 81 81 81 81 81 81 82 82 0
1 82 82 82 82 82 82 82 82 82 82 82 82 82 82 0
1 82 82 82 82 82 82 82 82 82 82 82 82 82 82 0
1 82 82 82 82 82 82 82 82 82 82 82 82 83 83 0
1 83 83 83 83 83 83 83 83 83 83 83 83 83 83 0
1 83 83 83 83 83 83 83 83 83 83 83 83 83 83 0
1 83 83 83 83 83 83 83 83 83 83 84 84 84 84 0
1 84 84 84 84 84 84 84 84 84 84 84 84 84 84 0
1 84 84 84 84 84 84 84 84 84 84 84 84 84 84 0
1 84 84 84 84 84 84 84 84 84 84 84 84 84 84 0
1 84 84 84 84 84 84 84 84 84 84 84 84 84 84 0
1 84 84 84 84 85 85 85 85 85 85 85 85 85 85 0
1 85 85 85 85 85 85 85 85 85 85 85 85 85 85 0
1 85 85 85 85 85 85 85 85 85 85 85 85 85 85 0
1 85 85 85 85 85 85 85 85 85 85 85 85 85 85 0
1 85 85 85 85 85 85 85 85 85 85 85 85 85 86 0
1 86 86 86 86 86 86 86 86 86 86 86 86 86 86 0
1 86 86 86 86 86 86 86 86 86 86 86 86 86 86 0
1 86 86 86 86 86 86 86 86 86 86 86 86 86 87 0
1 87 87 87 87 87 87 87 87 87 87 87 87 87 87 0
1 87 87 87 87 87 87 87 87 87 87 87 87 87 87 0
1 87 87 87 87 87 87 87 87 87 87 87 87 87 87 0
1 87 88 88 88 88 88 88 88 88 88 88 88 88 88 0
1 88 88 88 88 88 88 88 88 88 88 88 88 88 88 0
1 88 88 88 88 88 88 88 88 88 88 88 88 88 88 0
1 89 89 89 89 89 89 89 89 89 89 89 89 89 89 0
1 89 89 89 89 89 89 89 89 89 89 89 89 89 89 0
1 89 89 89 89 89 89 89 89 89 89 89 89 89 89 0
1 89 89 89 89 89 89 89 89 89 89 89 89 89 90 0
1 90 90 90 90 90 90 90 90 90 90 90 90 90 90 0
1 90 90 90 90 90 90 90 90 90 90 90 90 90 90 0
1 90 90 90 90 90 90 90 90 90 90 90 90 90 90 0
1 90 90 90 90 90 90 90 91 91 91 91 91 91 91 0
1 91 91 91 91 91 91 91 91 91 91 91 91 91 91 0
1 91 91 91 91 91 91 91 91 91 91 91 91 91 91 0
1 91 91 91 91 91 91 91 91 91 91 91 91 91 92 0
1 92 92 92 92 92 92 92 92 92 92 92 92 92 92 0
1 92 92 92 92 92 92 92 92 92 92 92 92 92 92 0
1 92 92 92 92 92 92 92 92 92 92 92 92 92 93 0
1 93 93 93 93 93 93 93 93 93 93 93 93 93 93 0
1 93 93 93 93 93 93 93 93 93 93 93 93 93 93 0
1 93 93 93 93 93 93 93 93 93 93 93 93 93 93 0
1 93 93 93 93 93 93 93 93 93 93 93 93 93 94 0
1 94 94 94 94 94 94 94 94 94 94 94 94 94 94 0
1 94 94 94 94 94 94 94 94 94 94 94 94 94 94 0
1 94 94 94 94 94 94 94 94 94 94 94 94 94 94 0
1 95 95 95 95 95 95 95 95 95 95 95 95 95 95 0
1 95 95 95 95 95 95 95 95 95 95 95 95 95 95 0
1 95 95 95 95 95 95 95 95 95 95 95 95 95 95 0
1 95 95 95 95 95 95 95 95 95 95 95 95 95 95 0
1 95 95 95 96 96 96 96 96 96 96 96 96 96 96 0
1 96 96 96 96 96 96 96 96 96 96 96 96 96 96 0
1 96 96 96 96 96 96 96 96 96 96 96 96 96 96 0
1 96 96 96 96 96 96 96 96 96 96 96 96 96 96 0
1 96 96 96 96 96 96 96 96 96 97 97 97 97 97 0
1 97 97 97 97 97 97 97 97 97 97 97 97 97 97 0
1 97 97 97 97 97 97 97 97 97 97 97 97 97 97 0
1 97 97 97 97 97 97 97 97 97 97 97 97 97 97 0
1 98 98 98 98 98 98 98 98 98 98 98 98 98 98 0
1 98 98 98 98 98 98 98 98 98 98 98 98 98 98 0
1 98 98 98 98 98 98 98 98 98 98 98 98 98 98 0
1 99 99 99 99 99 99 99 99 99 99 99 99 99 99 0
1 99 99 99 99 99 99 99 99 99 99 99 99 99 99 0
1 99 99 99 99 99 99 99 99 99 99 99 99 99 99 0
1 99 99 99 99 99 99 100 100 100 100 100 100 100 100 0
1 100 100 100 100 100 100 100 100 100 100 100 100 100 100 0
1 100 100 100 100 100 100 100 100 100 100 100 100 100 100 0
1 100 100 100 100 100 100 100 100 100 100 100 100 100 100 0
1 100 100 100 100 0
1  0
1 6 9 10 12 25 30 33 40 44 50 52 56 63 66 0
1 69 91 92 100 103 105 113 126 131 137 148 156 160 168 0
1 178 183 185 191 196 200 203 215 221 228 236 238 247 248 0
1 252 261 262 266 272 278 279 286 291 298 299 300 319 326 0
1 346 347 352 361 364 378 380 385 399 402 419 428 430 432 0
1 439 443 447 449 454 455 463 470 481 486 494 498 503 506 0
1 516 520 528 532 533 536 540 542 549 550 552 557 558 563 0
1 574 575 578 592 594 597 598 599 602 604 605 607 618 619 0
1 622 625 629 634 641 643 645 647 654 655 670 671 674 677 0
1 694 695 698 703 708 709 716 717 723 724 733 734 738 742 0
1 748 754 755 758 760 761 765 770 773 775 779 789 791 803 0
1 820 821 822 835 852 853 855 857 864 867 869 883 891 897 0
1 904 905 909 912 913 923 933 941 947 950 957 959 967 971 0
1 985 986 1001 1002 1008 1011 1018 1020 1021 1022 1029 1032 1034 1054 0
1 1062 1066 1067 1068 1075 1076 1087 1091 1094 1104 1114 1115 1118 1125 0
1 1141 1149 1159 1164 1166 1182 1190 1193 1212 1213 1214 1223 1225 1231 0
1 1244 1245 1246 1250 1264 1274 1281 1282 1283 1295 1298 1303 1308 1312 0
1 1316 1318 1321 1323 1324 1326 1334 1335 1344 1351 1355 1356 1364 1371 0
1 1399 1401 1420 1421 1429 1432 1436 1439 1441 1444 1456 1458 1460 1462 0
1 1464 1466 1470 1473 1475 1478 1487 1493 1509 1526 1528 1530 1531 1539 0
1 1547 1548 1549 1557 1559 1561 1563 1564 1567 1568 1572 1580 1588 1589 0
1 1592 1597 1599 1602 1603 1615 1634 1640 1641 1643 1644 1646 1647 1650 0
1 1663 1664 1666 1668 1672 1674 1677 1682 1689 1694 1698 1701 1702 1703 0
1 1710 1715 1718 1726 1727 1741 1742 1747 1757 1764 1767 1768 1770 1774 0
1 1779 1786 1797 1802 1811 1817 1821 1825 1833 1840 1850 1855 1873 1882 0
1 1888 1892 1905 1913 1915 1918 1920 1923 1927 1932 1933 1942 1945 1948 0
1 1956 1960 1961 1971 1975 1976 1980 1986 1988 1992 1998 2005 2019 2025 0
1 2035 2039 2050 2056 2070 2071 2079 2081 2082 2087 2091 2101 2103 2112 0
1 2117 2124 2153 2154 2159 2163 2169 2178 2182 2184 2188 2190 2195 2196 0
1 2201 2207 2224 2226 2239 2244 2245 2258 2262 2265 2269 2272 2275 2281 0
1 2296 2299 2304 2308 2310 2311 2314 2316 2320 2321 2322 2341 2349 2357 0
1 2368 2373 2376 2377 2383 2390 2397 2398 2409 2415 2416 2423 2424 2429 0
1 2440 2442 2449 2454 2460 2465 2466 2468 2472 2476 2477 2479 2481 2485 0
1 2499 2500 2510 2512 2514 2525 2529 2532 2534 2536 2539 2541 2542 2544 0
1 2558 2559 2565 2566 2579 2596 2600 2608 2612 2619 2626 2627 2633 2634 0
1 2639 2643 2644 2647 2664 2678 2679 2684 2686 2688 2692 2698 2703 2711 0
1 2723 2725 2731 2737 2742 2745 2749 2763 2783 2788 2794 2797 2812 2818 0
1 2823 2824 2850 2854 2855 2861 2869 2873 2874 2876 2881 2885 2887 2892 0
1 2900 2909 2912 2920 2921 2923 2924 2925 2929 2930 2934 2936 2942 2947 0
1 2955 2956 2973 2974 2978 2985 2989 2997 2999 3001 3005 3006 3012 3020 0
1 3028 3031 3035 3037 3041 3046 3047 3050 3057 3061 3065 3074 3079 3083 0
1 3090 3099 3101 3107 3114 3142 3144 3154 3155 3158 3162 3170 3174 3181 0
1 3194 3197 3201 3212 3215 3220 3221 3229 3238 3247 3258 3260 3265 3275 0
1 3290 3294 3300 3309 3310 3315 3320 3322 3323 3327 3329 3334 3335 3336 0
1 3347 3351 3357 3358 3364 3365 3369 3376 3379 3380 3390 3402 3407 3412 0
1 3419 3424 3435 3436 3443 3447 3456 3462 3463 3473 3482 3483 3484 3501 0
1 3509 3510 3512 3515 3520 3522 3524 3548 3551 3552 3557 3561 3564 3574 0
1 3576 3580 3581 3588 3597 3598 3611 3615 3619 3620 3621 3625 3626 3627 0
1 3635 3639 3657 3661 3662 3664 3668 3674 3677 3680 3685 3689 3691 3693 0
1 3707 3709 3710 3714 3724 3728 3729 3736 3738 3739 3745 3758 3763 3767 0
1 3776 3784 3785 3791 3793 3794 3795 3797 3799 3803 3812 3817 3818 3824 0
1 3834 3854 3856 3858 3863 3868 3872 3889 3896 3901 3907 3908 3926 3927 0
1 3933 3940 3945 3946 3947 3953 3956 3961 3964 3970 3975 3985 3987 3994 0
1 4005 4008 4012 4013 4014 4023 4026 4030 4035 4039 4046 4048 4050 4053 0
1 4057 4077 4087 4088 4097 4100 4107 4109 4114 4115 4121 4124 4127 4129 0
1 4131 4136 4137 4140 4151 4154 4155 4157 4162 4179 4188 4197 4208 4220 0
1 4229 4230 4232 4240 4241 4246 4249 4252 4256 4264 4270 4275 4277 4281 0
1 4292 4298 4305 4314 4319 4340 4346 4355 4359 4366 4375 4379 4381 4388 0
1 4394 4416 4423 4431 4435 4437 4443 4447 4450 4455 4465 4467 4477 4478 0
1 4483 4496 4497 4500 4503 4506 4514 4515 4523 4553 4556 4560 4567 4568 0
1 4586 4589 4594 4595 4596 4598 4604 4622 4638 4657 4665 4667 4669 4674 0
1 4683 4690 4693 4701 4703 4707 4708 4717 4722 4728 4730 4737 4745 4749 0
1 4767 4770 4771 4786 4797 4800 4807 4812 4813 4814 4825 4839 4848 4852 0
1 4856 4871 4873 4882 4885 4887 4888 4892 4894 4903 4904 4906 4907 4909 0
1 4912 4914 4915 4920 4926 4935 4939 4942 4945 4957 4965 4967 4970 4971 0
1 4977 4985 4990 0
1  0
1 7 15 16 19 22 24 27 31 33 55 56 58 61 63 0
1 81 87 92 93 94 95 104 117 121 125 127 131 134 140 0
1 146 152 155 156 158 169 174 177 184 190 192 202 206 208 0
1 219 221 235 242 244 258 259 260 263 266 270 273 275 280 0
1 289 292 305 307 309 312 317 329 332 345 351 358 359 360 0
1 368 373 375 377 384 386 390 392 396 400 402 407 412 419 0
1 432 438 446 451 452 476 485 487 491 498 501 508 510 518 0
1 527 529 531 535 538 540 547 549 550 551 553 562 563 573 0
1 579 580 589 596 602 603 605 616 619 621 642 648 657 659 0
1 672 680 681 684 688 692 702 707 712 716 717 722 728 734 0
1 739 742 743 751 754 760 766 768 779 783 796 798 799 809 0
1 821 824 830 833 835 842 855 872 878 882 889 908 909 921 0
1 933 937 938 940 943 949 950 952 957 960 968 976 982 988 0
1 999 1003 1007 1011 1015 1021 1029 1032 1033 1034 1043 1048 1056 1060 0
1 1072 1073 1074 1078 1079 1081 1088 1093 1098 1100 1104 1105 1109 1110 0
1 1118 1120 1126 1128 1152 1156 1159 1160 1168 1169 1170 1171 1182 1190 0
1 1194 1195 1200 1203 1204 1241 1252 1253 1255 1257 1261 1266 1273 1274 0
1 1290 1294 1304 1308 1311 1312 1314 1329 1331 1338 1346 1347 1355 1357 0
1 1366 1369 1373 1374 1382 1383 1390 1402 1407 1416 1418 1419 1428 1429 0
1 1451 1458 1461 1468 1469 1470 1471 1473 1474 1476 1479 1482 1487 1489 0
1 1500 1501 1502 1511 1533 1535 1538 1542 1548 1553 1559 1567 1571 1574 0
1 1599 1605 1606 1611 1613 1616 1619 1622 1623 1624 1625 1639 1644 1646 0
1 1664 1666 1668 1675 1676 1683 1688 1690 1692 1697 1700 1717 1718 1719 0
1 1731 1733 1737 1742 1747 1754 1756 1764 1773 1774 1784 1792 1797 1801 0
1 1805 1806 1808 1818 1819 1826 1828 1833 1836 1837 1843 1846 1849 1858 0
1 1865 1866 1870 1872 1873 1874 1876 1877 1880 1890 1897 1900 1915 1918 0
1 1927 1929 1930 1933 1939 1944 1950 1954 1960 1961 1963 1965 1970 1973 0
1 1980 2000 2003 2006 2007 2008 2009 2022 2024 2033 2037 2040 2049 2062 0
1 2075 2076 2078 2083 2084 2085 2086 2090 2091 2106 2119 2121 2124 2125 0
1 2129 2137 2139 2142 2144 2151 2164 2166 2167 2168 2170 2179 2189 2190 0
1 2205 2213 2217 2230 2233 2234 2240 2247 2252 2256 2258 2263 2265 2266 0
1 2272 2275 2283 2289 2291 2296 2310 2313 2318 2335 2344 2357 2358 2361 0
1 2365 2383 2388 2408 2412 2415 2425 2428 2430 2437 2450 2461 2463 2473 0
1 2481 2486 2491 2495 2500 2502 2507 2517 2524 2525 2528 2539 2540 2542 0
1 2566 2569 2586 2591 2597 2598 2599 2602 2606 2611 2624 2629 2631 2633 0
1 2638 2647 2668 2669 2671 2674 2675 2681 2687 2689 2690 2693 2702 2705 0
1 2720 2721 2724 2726 2736 2745 2747 2750 2757 2765 2769 2773 2775 2776 0
1 2787 2791 2795 2800 2807 2810 2813 2814 2853 2859 2866 2868 2871 2876 0
1 2878 2883 2893 2897 2898 2908 2910 2916 2919 2922 2923 2929 2931 2933 0
1 2936 2944 2957 2958 2967 2969 2972 2992 2996 2998 3000 3002 3004 3007 0
1 3014 3026 3027 3029 3030 3037 3042 3048 3053 3056 3057 3070 3071 3077 0
1 3088 3090 3102 3112 3116 3127 3132 3139 3140 3143 3144 3146 3151 3163 0
1 3168 3171 3173 3175 3179 3180 3182 3186 3189 3197 3203 3204 3212 3214 0
1 3217 3218 3220 3223 3227 3231 3238 3245 3252 3254 3256 3257 3268 3273 0
1 3280 3285 3295 3297 3300 3301 3305 3306 3310 3315 3320 3321 3337 3338 0
1 3343 3351 3352 3362 3364 3372 3380 3382 3385 3387 3388 3397 3398 3400 0
1 3404 3405 3417 3421 3423 3430 3431 3432 3443 3445 3446 3448 3449 3453 0
1 3466 3467 3472 3479 3482 3490 3494 3504 3507 3514 3527 3532 3537 3540 0
1 3553 3563 3567 3570 3572 3576 3580 3582 3602 3603 3604 3613 3614 3622 0
1 3640 3645 3651 3652 3654 3655 3657 3661 3665 3669 3674 3677 3678 3679 0
1 3686 3691 3693 3696 3701 3702 3705 3706 3708 3709 3715 3723 3734 3737 0
1 3739 3742 3743 3744 3745 3748 3750 3753 3760 3766 3770 3771 3772 3776 0
1 3781 3798 3802 3811 3813 3820 3824 3828 3830 3834 3835 3841 3844 3845 0
1 3853 3854 3857 3860 3861 3868 3874 3877 3884 3891 3894 3898 3899 3919 0
1 3944 3945 3955 3956 3976 3989 3991 4001 4009 4023 4024 4025 4042 4053 0
1 4063 4066 4071 4081 4083 4084 4088 4092 4098 4102 4104 4106 4125 4133 0
1 4159 4163 4164 4165 4167 4171 4175 4176 4179 4185 4188 4189 4191 4193 0
1 4198 4199 4200 4224 4226 4227 4231 4232 4234 4235 4242 4249 4251 4252 0
1 4262 4264 4269 4277 4279 4285 4291 4297 4299 4301 4302 4306 4311 4317 0
1 4322 4335 4336 4343 4347 4352 4355 4359 4363 4365 4375 4377 4392 4397 0
1 4411 4422 4423 4428 4435 4453 4454 4463 4466 4468 4480 4490 4498 4500 0
1 4504 4511 4519 4525 4529 4531 4536 4541 4545 4554 4565 4568 4569 4579 0
1 4584 4587 4588 4592 4595 4619 4620 4623 4624 4627 4633 4637 4638 4640 0
1 4649 4654 4656 4663 4664 4669 4678 4679 4686 4711 4715 4722 4736 4738 0
1 4762 4768 4776 4785 4789 4800 4802 4805 4806 4809 4810 4819 4822 4823 0
1 4837 4845 4850 4855 4859 4861 4869 4873 4875 4878 4880 4892 4902 4914 0
1 4917 4924 4931 4932 4933 4946 4952 4957 4966 4969 4973 4975 4984 4990 0
1 4994 4996 0
1  0
1 12 13 16 19 24 33 37 39 55 60 67 76 81 82 0
1 91 101 111 113 116 127 130 132 150 166 168 171 183 189 0
1 198 199 201 205 206 208 209 210 211 212 213 216 218 220 0
1 230 234 239 259 261 262 263 266 270 276 282 284 290 295 0
1 304 305 309 317 321 325 330 332 339 349 355 359 361 363 0
1 378 386 393 394 402 405 406 409 410 411 417 426 431 445 0
1 457 459 463 464 465 471 486 489 494 497 501 505 510 513 0
1 517 523 528 537 539 548 554 558 559 571 575 580 581 583 0
1 585 589 601 603 604 607 618 620 628 638 642 645 648 659 0
1 663 667 678 680 686 689 692 696 707 719 723 724 725 729 0
1 770 772 773 774 776 779 780 783 796 798 802 804 808 810 0
1 815 816 817 822 823 827 831 834 835 844 846 847 857 858 0
1 869 872 873 882 898 901 902 903 910 915 926 927 929 934 0
1 949 951 959 967 979 985 987 1001 1010 1012 1014 1017 1026 1031 0
1 1038 1051 1059 1062 1080 1091 1092 1098 1099 1100 1107 1115 1117 1118 0
1 1121 1154 1166 1169 1172 1173 1175 1178 1184 1192 1194 1200 1216 1219 0
1 1222 1223 1232 1233 1243 1246 1248 1265 1266 1268 1270 1278 1287 1291 0
1 1297 1298 1299 1300 1309 1312 1316 1328 1339 1345 1350 1360 1365 1379 0
1 1394 1396 1398 1402 1406 1416 1419 1425 1434 1436 1439 1441 1443 1459 0
1 1463 1475 1481 1483 1492 1502 1503 1510 1517 1523 1529 1532 1543 1544 0
1 1555 1556 1559 1560 1569 1570 1571 1578 1582 1594 1604 1605 1608 1610 0
1 1622 1634 1638 1644 1650 1654 1661 1663 1678 1679 1687 1713 1719 1727 0
1 1729 1731 1736 1737 1738 1754 1762 1767 1777 1779 1787 1788 1794 1795 0
1 1797 1804 1806 1807 1808 1812 1813 1819 1826 1830 1835 1836 1839 1841 0
1 1846 1857 1864 1865 1880 1881 1882 1885 1886 1888 1889 1896 1899 1900 0
1 1910 1911 1919 1922 1925 1934 1936 1938 1940 1945 1949 1952 1956 1960 0
1 1964 1966 1969 1972 1974 1986 1989 1990 1998 2000 2002 2007 2012 2014 0
1 2026 2027 2028 2030 2033 2040 2044 2045 2049 2060 2064 2068 2088 2089 0
1 2112 2116 2117 2121 2123 2124 2126 2127 2134 2137 2138 2142 2150 2154 0
1 2163 2176 2184 2185 2187 2202 2204 2208 2210 2212 2215 2218 2220 2228 0
